unsat
(define-fun SC ((s (_ BitVec 4)) (t (_ BitVec 4))) Bool (bvult t (bvshl #b1111 s)))
8.39user 0.00system 0:08.40elapsed 99%CPU (0avgtext+0avgdata 37748maxresident)k
0inputs+8outputs (0major+4003minor)pagefaults 0swaps
